$
$ Database for Co-Cr from G. Cacciamani et al. 2018.
$
$ G. Cacciamani, G. Roncallo, Y. Wang, E. Vacchieri, A. Costa,
$ J. Alloys Compd., 730, 291-310(2018).
$
$ Dataset created 2020.01.26 by Bengt Hallstedt.
$
$ Modified from 02Oik with a new model for the sigma phase.
$
$ Pure element data are not given in 18Cac. These were assumed to be taken
$ from 06Slu.
$
$ The sigma phase has higher Co content than shown in 18Cac.
$
$ ------------------------------------------------------------------------------
 TEMP-LIM 298.15 6000.00 !
$
$ELEMENT NAME  REF. STATE               ATOMIC MASS H298-H0    S298    !
$
 ELEMENT VA   VACUUM                      0.0          0.0      0.0    ! 
 ELEMENT CO   HCP_A3                     58.9332    4765.567   30.0400 ! 
 ELEMENT CR   BCC_A2                     51.996     4050.0     23.5429 ! 
$ ------------------------------------------------------------------------------
$ Phase definitions
$
 PHASE LIQUID:L % 1 1 !
 CONST LIQUID:L : CO CR : !
$
$ Fcc (cF4, Fm-3m) and MeX (cF8, Fm-3m)
$
 PHASE FCC_A1 %A 2 1 1 !
 CONST FCC_A1 : CO% CR : VA : !
$
$ Bcc (cI2, Im-3m)
$
 PHASE BCC_A2 %B 2 1 3 !
 CONST BCC_A2 : CO CR% : VA : !
$
$ Hcp (hP2, P6_3/mmc) and Me2X (NiAs-type, hP4, P6_3/mmc, B8_1)
$
 PHASE HCP_A3 %A 2 1 0.5 !
 CONST HCP_A3 : CO% CR : VA : !
$
$ Prototype CrFe (tP30, P4_2/mnm)
$
 PHASE SIGMA_D8B % 3 10 4 16 !
 CONST SIGMA_D8B : CO% CR : CO CR% : CO CR : !
$ ------------------------------------------------------------------------------
$ Defaults
$
 DEFINE-SYSTEM-DEFAULT ELEMENT 2 !
 DEFAULT-COM DEFINE_SYSTEM_ELEMENT VA !
 TYPE-DEF % SEQ * !
 TYPE-DEF A GES AMEND_PHASE_DESCRIPTION @ MAGNETIC -3 0.28 !
 TYPE-DEF B GES AMEND_PHASE_DESCRIPTION @ MAGNETIC -1 0.4 !
 FUNCTION ZERO      298.15  0;                                         6000 N !
 FUNCTION UN_ASS    298.15  0;                                         6000 N !
 FUNCTION R         298.15  +8.31451;                                  6000 N !
$ ------------------------------------------------------------------------------
$ Element data
$ ------------------------------------------------------------------------------
$ Co
$
 PAR  G(HCP_A3,CO:VA),,                 +GHSERCO;,,                   N 91Din !
 PAR  TC(HCP_A3,CO:VA),,                 1396.00;,,                   N 91Din !
 PAR  BM(HCP_A3,CO:VA),,                    1.35;,,                   N 91Din !
 PAR  G(FCC_A1,CO:VA),,                 +GHSERCO
             +427.591-0.615248*T;,,                                   N 91Din !
 PAR  TC(FCC_A1,CO:VA),,                 1396.00;,,                   N 91Din !
 PAR  BM(FCC_A1,CO:VA),,                    1.35;,,                   N 91Din !
 PAR  G(BCC_A2,CO:VA),,                 +GHSERCO+2938-0.7138*T;,,     N 91Din !
 PAR  TC(BCC_A2,CO:VA),,                 1450.00;,,                   N 91Din !
 PAR  BM(BCC_A2,CO:VA),,                    1.35;,,                   N 91Din !
$PAR  G(CBCC_A12,CO:VA),,               +GHSERCO+4155;,,              N 91Din !
$PAR  G(CUB_A13,CO:VA),,                +GHSERCO+3155;,,              N 91Din !
 PAR  G(LIQUID,CO),,                    +GLIQCO;,,                    N 91Din !
$
 PAR  G(SIGMA_D8B,CO:CO:CO),,           +30*GSIGCO;,,                 N 06Slu !
$
 FUNCTION GHSERCO   298.15  +310.241+133.36601*T-25.0861*T*LN(T)
       -0.002654739*T**2-1.7348E-07*T**3+72527*T**(-1);
      1768.00  Y  -17197.666+253.28374*T-40.5*T*LN(T)+9.3488E+30*T**(-9);
      6000.00  N !
 FUNCTION GLIQCO    298.15  +15085.037-8.931932*T+GHSERCO-2.19801E-21*T**7;
      1768.00  Y  -846.61+243.599944*T-40.5*T*LN(T);
      6000.00  N !
 FUNCTION GFCCCO    298.15  +GHSERCO+427.59-0.615248*T;                6000 N !
 FUNCTION GBCCCO    298.15  +GHSERCO+2938-0.7138*T;                    6000 N !
 FUNCTION GSIGCO    298.15  +GFCCCO+4100;                              6000 N !
$ ------------------------------------------------------------------------------
$ Cr
$
 PAR  G(BCC_A2,CR:VA),,                 +GHSERCR;,,                   N 91Din !
 PAR  TC(BCC_A2,CR:VA),,                 -311.50;,,                   N 91Din !
 PAR  BM(BCC_A2,CR:VA),,                   -0.008;,,                  N 91Din !
 PAR  G(FCC_A1,CR:VA),,                 +GHSERCR+7284+0.163*T;,,      N 91Din !
 PAR  TC(FCC_A1,CR:VA),,                -1109.00;,,                   N 91Din !
 PAR  BM(FCC_A1,CR:VA),,                   -2.46;,,                   N 91Din !
 PAR  G(HCP_A3,CR:VA),,                 +GHSERCR+4438;,,              N 91Din !
 PAR  TC(HCP_A3,CR:VA),,                -1109.00;,,                   N 91Din !
 PAR  BM(HCP_A3,CR:VA),,                   -2.46;,,                   N 91Din !
$PAR  G(CBCC_A12,CR:VA),,               +GHSERCR+11087+2.7196*T;,,    N 91Din !
$PAR  G(CUB_A13,CR:VA),,                +GHSERCR+15899+0.6276*T;,,    N 91Din !
 PAR  G(LIQUID,CR),,                    +GLIQCR;,,                    N 91Din !
$
 PAR  G(SIGMA_D8B,CR:CR:CR),,           +30*GSIGCR;,,                 N 06Slu !
$
 FUNCTION GHSERCR   298.15  -8856.94+157.48*T-26.908*T*LN(T)
       +0.00189435*T**2-1.47721E-06*T**3+139250*T**(-1);
      2180.00  Y  -34869.344+344.18*T-50*T*LN(T)-2.88526E+32*T**(-9);
      6000.00  N !
 FUNCTION GLIQCR    298.15  +24339.955-11.420225*T+GHSERCR+2.37615E-21*T**7;
      2180.00  Y  -16459.984+335.616316*T-50*T*LN(T);
      6000.00  N !
 FUNCTION GFCCCR    298.15  +GHSERCR+7284+0.163*T;                     6000 N !
 FUNCTION GSIGCR    298.15  +GHSERCR+13200;                            6000 N !
$ ------------------------------------------------------------------------------
$ Binary system
$
$ G. Cacciamani, G. Roncallo, Y. Wang, E. Vacchieri, A. Costa,
$ J. Alloys Compd., 730, 291-310(2018).
$
$ Checked against paper. Checked at 6000 K.
$
$ Modified from 02Oik with a new model for the sigma phase.
$
$ Pure element data are not given in 18Cac. These were assumed to be taken
$ from 06Slu.
$
$ The sigma phase has higher Co content than shown in 18Cac.
$
 PAR  L(LIQUID,CO,CR;0),,               -12008.6239+2.2019*T;,,       N 02Oik !
 PAR  L(LIQUID,CO,CR;1),,               -5836.4696+1.1402*T;,,        N 02Oik !
$
 PAR  L(FCC_A1,CO,CR:VA;0),,            -24052.09+8.1884*T;,,         N 02Oik !
 PAR  L(FCC_A1,CO,CR:VA;1),,            +5331.8252-6.9059*T;,,        N 02Oik !
 PAR  TC(FCC_A1,CO,CR:VA;0),,           -9392.5259;,,                 N 02Oik !
 PAR  TC(FCC_A1,CO,CR:VA;1),,           +8383.0424;,,                 N 02Oik !
$
 PAR  L(BCC_A2,CO,CR:VA;0),,            +1033.2829-1.4808*T;,,        N 02Oik !
 PAR  L(BCC_A2,CO,CR:VA;1),,            +11971.5008-15*T;,,           N 18Cac !
$
 PAR  L(HCP_A3,CO,CR:VA;0),,            -28500+15.5105*T;,,           N 18Cac !
 PAR  L(HCP_A3,CO,CR:VA;1),,            +12673.5606-14.8392*T;,,      N 02Oik !
 PAR  TC(HCP_A3,CO,CR:VA;0),,           -5828.677;,,                  N 02Oik !
 PAR  TC(HCP_A3,CO,CR:VA;1),,           +4873.9533;,,                 N 02Oik !
$
 PAR  G(SIGMA_D8B,CO:CO:CR),,           +14*GSIGCO+16*GSIGCR
             +GSCRCO+GSCOCR1;,,                                       N 18Cac !
 PAR  G(SIGMA_D8B,CO:CR:CO),,           +26*GSIGCO+4*GSIGCR
             -200000+20*T;,,                                          N 18Cac !
 PAR  G(SIGMA_D8B,CO:CR:CR),,           +10*GSIGCO+20*GSIGCR
             +GSCRCO;,,                                               N 18Cac !
 PAR  G(SIGMA_D8B,CR:CO:CO),,           +20*GSIGCO+10*GSIGCR
             +GSCRCO+GSCOCR1+GSCOCR2+GSCOCR3;,,                       N 18Cac !
 PAR  G(SIGMA_D8B,CR:CO:CR),,           +4*GSIGCO+26*GSIGCR
             +GSCRCO+GSCOCR1+GSCOCR3;,,                               N 18Cac !
 PAR  G(SIGMA_D8B,CR:CR:CO),,           +16*GSIGCO+14*GSIGCR
             -200000+20*T;,,                                          N 18Cac !
$
 FUNCTION GSCRCO    298.15  -526000+49*T;                              6000 N !
 FUNCTION GSCOCR1   298.15  +180000;                                   6000 N !
 FUNCTION GSCOCR2   298.15  +348000;                                   6000 N !
 FUNCTION GSCOCR3   298.15  +525000;                                   6000 N !
$ ------------------------------------------------------------------------------
$
 ASSESSED_SYSTEM
  CO-CR(TDB -* +LIQ +HCP_A3 +BCC_A2 +FCC_A1 +SIGMA_D8B
  ;G5 C_S:FCC/CO:VA ;P3 TMM:300/3000 STP:.1/1100) !
$
$
 LIST-OF-REFERENCE
 NUMBER  SOURCE
  Null   'Unknown source'
  Same   'Same or similar interaction as in the corresponding stable phase'
  REFLAV 'Laves phase convention: G(LAVES,X:X)=+3*GHSERXX+15000'
  91Din  'A.T. Dinsdale, Calphad, 15, 317-425(1991).'
  02Oik  'K. Oikawa, G.-W. Qin, T. Ikeshoji, R. Kainuma, K. Ishida,
          Acta Mater., 50, 2223-32(2002); Co-Cr'
  06Slu  'M.H.F. Sluiter, Calphad, 30, 357-66(2006); Endmember values'
  18Cac  'G. Cacciamani, G. Roncallo, Y. Wang, E. Vacchieri, A. Costa,
          J. Alloys Compd., 730, 291-310(2018); Co-Cr'
!
