$
$ Database for Co-Cr from K. Oikawa et al. 2001.
$
$ K. Oikawa, G.W. Qin, T. Ikeshoji, O. Kitakami, Y. Shimada, K. Ishida,
$ K. Fukamichi, J. Magn. Magn. Mater., 236, 220-33(2001).
$
$ Dataset created 2020.01.26 by Bengt Hallstedt.
$
$ ------------------------------------------------------------------------------
 TEMP-LIM 298.15 6000.00 !
$
$ELEMENT NAME  REF. STATE               ATOMIC MASS H298-H0    S298    !
$
 ELEMENT VA   VACUUM                      0.0          0.0      0.0    ! 
 ELEMENT CO   HCP_A3                     58.9332    4765.567   30.0400 ! 
 ELEMENT CR   BCC_A2                     51.996     4050.0     23.5429 ! 
$ ------------------------------------------------------------------------------
$ Phase definitions
$
 PHASE LIQUID:L % 1 1 !
 CONST LIQUID:L : CO CR : !
$
$ Fcc (cF4, Fm-3m) and MeX (cF8, Fm-3m)
$
 PHASE FCC_A1 %A 2 1 1 !
 CONST FCC_A1 : CO% CR : VA : !
$
$ Bcc (cI2, Im-3m)
$
 PHASE BCC_A2 %B 2 1 3 !
 CONST BCC_A2 : CO CR% : VA : !
$
$ Hcp (hP2, P6_3/mmc) and Me2X (NiAs-type, hP4, P6_3/mmc, B8_1)
$
 PHASE HCP_A3 %A 2 1 0.5 !
 CONST HCP_A3 : CO% CR : VA : !
$
$ Prototype CrFe (tP30, P4_2/mnm)
$ Sigma in TCFE 2000 and SSOL V4
$
 PHASE SIGMA_OLD % 3 8 4 18 !
 CONST SIGMA_OLD : CO : CR : CO CR : !
$ ------------------------------------------------------------------------------
$ Defaults
$
 DEFINE-SYSTEM-DEFAULT ELEMENT 2 !
 DEFAULT-COM DEFINE_SYSTEM_ELEMENT VA !
 TYPE-DEF % SEQ * !
 TYPE-DEF A GES AMEND_PHASE_DESCRIPTION @ MAGNETIC -3 0.28 !
 TYPE-DEF B GES AMEND_PHASE_DESCRIPTION @ MAGNETIC -1 0.4 !
 FUNCTION ZERO      298.15  0;                                         6000 N !
 FUNCTION UN_ASS    298.15  0;                                         6000 N !
 FUNCTION R         298.15  +8.31451;                                  6000 N !
$ ------------------------------------------------------------------------------
$ Element data
$ ------------------------------------------------------------------------------
$ Co
$
 PAR  G(HCP_A3,CO:VA),,                 +GHSERCO;,,                   N 91Din !
 PAR  TC(HCP_A3,CO:VA),,                 1396.00;,,                   N 91Din !
 PAR  BM(HCP_A3,CO:VA),,                    1.35;,,                   N 91Din !
 PAR  G(FCC_A1,CO:VA),,                 +GHSERCO
             +427.591-0.615248*T;,,                                   N 91Din !
 PAR  TC(FCC_A1,CO:VA),,                 1396.00;,,                   N 91Din !
 PAR  BM(FCC_A1,CO:VA),,                    1.35;,,                   N 91Din !
 PAR  G(BCC_A2,CO:VA),,                 +GHSERCO+2938-0.7138*T;,,     N 91Din !
 PAR  TC(BCC_A2,CO:VA),,                 1450.00;,,                   N 91Din !
 PAR  BM(BCC_A2,CO:VA),,                    1.35;,,                   N 91Din !
$PAR  G(CBCC_A12,CO:VA),,               +GHSERCO+4155;,,              N 91Din !
$PAR  G(CUB_A13,CO:VA),,                +GHSERCO+3155;,,              N 91Din !
 PAR  G(LIQUID,CO),,                    +GLIQCO;,,                    N 91Din !
$
 FUNCTION GHSERCO   298.15  +310.241+133.36601*T-25.0861*T*LN(T)
       -0.002654739*T**2-1.7348E-07*T**3+72527*T**(-1);
      1768.00  Y  -17197.666+253.28374*T-40.5*T*LN(T)+9.3488E+30*T**(-9);
      6000.00  N !
 FUNCTION GLIQCO    298.15  +15085.037-8.931932*T+GHSERCO-2.19801E-21*T**7;
      1768.00  Y  -846.61+243.599944*T-40.5*T*LN(T);
      6000.00  N !
 FUNCTION GFCCCO    298.15  +GHSERCO+427.59-0.615248*T;                6000 N !
 FUNCTION GBCCCO    298.15  +GHSERCO+2938-0.7138*T;                    6000 N !
$ ------------------------------------------------------------------------------
$ Cr
$
 PAR  G(BCC_A2,CR:VA),,                 +GHSERCR;,,                   N 91Din !
 PAR  TC(BCC_A2,CR:VA),,                 -311.50;,,                   N 91Din !
 PAR  BM(BCC_A2,CR:VA),,                   -0.008;,,                  N 91Din !
 PAR  G(FCC_A1,CR:VA),,                 +GHSERCR+7284+0.163*T;,,      N 91Din !
 PAR  TC(FCC_A1,CR:VA),,                -1109.00;,,                   N 91Din !
 PAR  BM(FCC_A1,CR:VA),,                   -2.46;,,                   N 91Din !
 PAR  G(HCP_A3,CR:VA),,                 +GHSERCR+4438;,,              N 91Din !
 PAR  TC(HCP_A3,CR:VA),,                -1109.00;,,                   N 91Din !
 PAR  BM(HCP_A3,CR:VA),,                   -2.46;,,                   N 91Din !
$PAR  G(CBCC_A12,CR:VA),,               +GHSERCR+11087+2.7196*T;,,    N 91Din !
$PAR  G(CUB_A13,CR:VA),,                +GHSERCR+15899+0.6276*T;,,    N 91Din !
 PAR  G(LIQUID,CR),,                    +GLIQCR;,,                    N 91Din !
$
 FUNCTION GHSERCR   298.15  -8856.94+157.48*T-26.908*T*LN(T)
       +0.00189435*T**2-1.47721E-06*T**3+139250*T**(-1);
      2180.00  Y  -34869.344+344.18*T-50*T*LN(T)-2.88526E+32*T**(-9);
      6000.00  N !
 FUNCTION GLIQCR    298.15  +24339.955-11.420225*T+GHSERCR+2.37615E-21*T**7;
      2180.00  Y  -16459.984+335.616316*T-50*T*LN(T);
      6000.00  N !
 FUNCTION GFCCCR    298.15  +GHSERCR+7284+0.163*T;                     6000 N !
$  functions for quick acess for parameters
 FUNCTION SIGMA_OLD_COCRCO_0 298.15 -103863;                           6000 N !
 FUNCTION SIGMA_OLD_COCRCO_1 298.15 +47.47;                            6000 N !
 FUNCTION SIGMA_OLD_COCRCR_0 298.15 -248108.8;                         6000 N !
 FUNCTION SIGMA_OLD_COCRCR_1 298.15 +79.12;                            6000 N !
$ ------------------------------------------------------------------------------
$ Binary system
$
$ K. Oikawa, G.W. Qin, T. Ikeshoji, O. Kitakami, Y. Shimada, K. Ishida,
$ K. Fukamichi, J. Magn. Magn. Mater., 236, 220-33(2001).
$
$ Checked against paper. Checked at 6000 K.
$
 PAR  L(LIQUID,CO,CR;0),,               -11900+2.4*T;,,               N 98Hav !
 PAR  L(LIQUID,CO,CR;1),,               -6500+0.1*T;,,                N 98Hav !

$
 PAR  L(FCC_A1,CO,CR:VA;0),,            L0_0_FCC+L0_1_FCC*T;,,              N 98Hav !
 PAR  L(FCC_A1,CO,CR:VA;1),,            +12370-12.08*T;,,             N 98Hav !
$

 PAR  TC(FCC_A1,CO,CR:VA;0),,           -8082;,,                      N 01Oik !
 PAR  TC(FCC_A1,CO,CR:VA;1),,           +6684;,,                      N 01Oik !
$
 PAR  L(BCC_A2,CO,CR:VA;0),,            +4820-3.225*T;,,              N 98Hav !
 PAR  L(BCC_A2,CO,CR:VA;1),,            +14250-15.865*T;,,            N 98Hav !

$
 PAR  L(HCP_A3,CO,CR:VA;0),,            -25149+13*T;,,                N 98Hav !
 PAR  L(HCP_A3,CO,CR:VA;1),,            +1719-3*T;,,                  N 98Hav !
$

 PAR  TC(HCP_A3,CO,CR:VA;0),,           -7860.91;,,                   N 01Oik !
 PAR  TC(HCP_A3,CO,CR:VA;1),,           +7834;,,                      N 01Oik !
$
 PAR  G(SIGMA_OLD,CO:CR:CO),,           +8*GFCCCO+4*GHSERCR+18*GBCCCO
     +SIGMA_OLD_COCRCO_0+SIGMA_OLD_COCRCO_1*T;,,                      N 01Oik !
 PAR  G(SIGMA_OLD,CO:CR:CR),,           +8*GFCCCO+22*GHSERCR
             +SIGMA_OLD_COCRCR_0+SIGMA_OLD_COCRCR_1*T;,,               N 01Oik !
$  functions for quick acess for parameters

 FUNCTION L0_0_FCC               -23080;                           6000 N !
 FUNCTION L0_1_FCC               +8.34;                            6000 N !
$ ------------------------------------------------------------------------------
$
 ASSESSED_SYSTEM
  CO-CR(TDB -* +LIQ +HCP_A3 +BCC_A2 +FCC_A1 +SIGMA_OLD
  ;G5 C_S:FCC/CO:VA ;P3 TMM:300/3000 STP:.1/1100) !
$
$
 LIST-OF-REFERENCE
 NUMBER  SOURCE
  Null   'Unknown source'
  Same   'Same or similar interaction as in the corresponding stable phase'
  REFLAV 'Laves phase convention: G(LAVES,X:X)=+3*GHSERXX+15000'
  91Din  'A.T. Dinsdale, Calphad, 15, 317-425(1991).'
  98Hav  'J. Havrankova, J. Vrestal, J. Tomiska,
          Ber. Bunsenges. Phys. Chem., 102, 1225-30(1998); Co-Cr'
  01Oik  'K. Oikawa, G.W. Qin, T. Ikeshoji, O. Kitakami, Y. Shimada, K. Ishida,
          K. Fukamichi, J. Magn. Magn. Mater., 236, 220-33(2001); Co-Cr'
!
