$
$ Database for Co-Cr from K. Oikawa et al. 2001.
$
$ K. Oikawa, G.W. Qin, T. Ikeshoji, O. Kitakami, Y. Shimada, K. Ishida,
$ K. Fukamichi, J. Magn. Magn. Mater., 236, 220-33(2001).
$
$ Dataset created 2020.01.26 by Bengt Hallstedt.
$
$ ------------------------------------------------------------------------------
 TEMP-LIM 298.15 6000.00 !
$
$ELEMENT NAME  REF. STATE               ATOMIC MASS H298-H0    S298    !
$
 ELEMENT VA   VACUUM                      0.0          0.0      0.0    ! 
 ELEMENT CO   HCP_A3                     58.9332    4765.567   30.0400 ! 
 ELEMENT CR   BCC_A2                     51.996     4050.0     23.5429 ! 
$ ------------------------------------------------------------------------------
$ Phase definitions
$
 PHASE LIQUID:L % 1 1 !
 CONST LIQUID:L : CO CR : !
$
$ Fcc (cF4, Fm-3m) and MeX (cF8, Fm-3m)
$
 PHASE FCC_A1 %A 2 1 1 !
 CONST FCC_A1 : CO% CR : VA : !
$
$ Bcc (cI2, Im-3m)
$
 PHASE BCC_A2 %B 2 1 3 !
 CONST BCC_A2 : CO CR% : VA : !
$
$ Hcp (hP2, P6_3/mmc) and Me2X (NiAs-type, hP4, P6_3/mmc, B8_1)
$
 PHASE HCP_A3 %A 2 1 0.5 !
 CONST HCP_A3 : CO% CR : VA : !
$
$ Prototype CrFe (tP30, P4_2/mnm)
$ Sigma in TCFE 2000 and SSOL V4
$
 PHASE SIGMA_OLD % 3 8 4 18 !
 CONST SIGMA_OLD : CO : CR : CO CR : !
$ ------------------------------------------------------------------------------
$ Defaults
$
 DEFINE-SYSTEM-DEFAULT ELEMENT 2 !
 DEFAULT-COM DEFINE_SYSTEM_ELEMENT VA !
 TYPE-DEF % SEQ * !
 TYPE-DEF A GES AMEND_PHASE_DESCRIPTION @ MAGNETIC -3 0.28 !
 TYPE-DEF B GES AMEND_PHASE_DESCRIPTION @ MAGNETIC -1 0.4 !
 FUNCTION ZERO      298.15  0;                                         6000 N !
 FUNCTION UN_ASS    298.15  0;                                         6000 N !
 FUNCTION R         298.15  +8.31451;                                  6000 N !
$ ------------------------------------------------------------------------------
$ Element data
$ ------------------------------------------------------------------------------
$ Co
$
 FUNCTION HCP_A3_G_L0                               6000 N !
 FUNCTION HCP_A3_TC_L0                               6000 N !
 FUNCTION HCP_A3_BM_L0                               6000 N !
 FUNCTION FCC_A1_G_L0                               6000 N !
 FUNCTION FCC_A1_TC_L0                               6000 N !
 FUNCTION FCC_A1_BM_L0                               6000 N !
 FUNCTION BCC_A2_G_L0                               6000 N !
 FUNCTION BCC_A2_TC_L0                               6000 N !
 FUNCTION BCC_A2_BM_L0                               6000 N !
 FUNCTION LIQUID_G_L0                               6000 N !
 FUNCTION BCC_A2_G_L0                               6000 N !
 FUNCTION BCC_A2_TC_L0                               6000 N !
 FUNCTION BCC_A2_BM_L0                               6000 N !
 FUNCTION FCC_A1_G_L0                               6000 N !
 FUNCTION FCC_A1_TC_L0                               6000 N !
 FUNCTION FCC_A1_BM_L0                               6000 N !
 FUNCTION HCP_A3_G_L0                               6000 N !
 FUNCTION HCP_A3_TC_L0                               6000 N !
 FUNCTION HCP_A3_BM_L0                               6000 N !
 FUNCTION LIQUID_G_L0                               6000 N !
 FUNCTION LIQUID_L_L0                               6000 N !
 FUNCTION LIQUID_L_L1                               6000 N !
 FUNCTION FCC_A1_L_L0                               6000 N !
 FUNCTION FCC_A1_L_L1                               6000 N !
 FUNCTION FCC_A1_TC_L0                               6000 N !
 FUNCTION FCC_A1_TC_L1                               6000 N !
 FUNCTION BCC_A2_L_L0                               6000 N !
 FUNCTION BCC_A2_L_L1                               6000 N !
 FUNCTION HCP_A3_L_L0                               6000 N !
 FUNCTION HCP_A3_L_L1                               6000 N !
 FUNCTION HCP_A3_TC_L0                               6000 N !
 FUNCTION HCP_A3_TC_L1                               6000 N !
 FUNCTION SIGMA_OLD_G_L0                               6000 N !
 FUNCTION SIGMA_OLD_G_L0_1                               6000 N !
